# Ga2 N2, Automatically Generated by AiiDA VASP Plugin
1.0
3.190000 0.000000 0.000000
-1.595000 2.762621 0.000000
0.000000 0.000000 5.189000
Ga N
2 2
direct
0.666667 0.333333 0.000000 Ga
0.333333 0.666666 0.500000 Ga
0.666667 0.333333 0.375000 N
0.333333 0.666666 0.875000 N
